14
5 9
5 6
5 13
5 2
5 8
5 12
5 1
5 4
5 0
5 3
5 10
5 7
9 6
9 8
9 4
9 2
9 11
9 10
9 3
9 1
9 7
9 13
9 12
6 1
6 7
6 10
6 3
6 2
6 11
6 4
6 8
6 0
6 13
8 13
8 4
8 10
8 11
8 0
8 12
8 3
8 1
8 7
13 12
13 4
13 2
13 11
13 3
13 1
13 0
13 7
10 11
10 0
10 3
10 12
10 7
10 1
10 4
10 2
11 3
11 7
11 1
11 0
11 12
11 4
11 2
4 12
4 0
4 3
4 1
4 2
7 12
7 0
7 3
7 2
7 1
12 2
12 0
12 3
12 1
0 2
0 3
0 1
2 1
2 3
